p cnf 35 36
-1 15 -2 9 31 34 -32 0 
-3 26 -2 9 31 35 0 
-3 26 -4 8 35 0 
-5 -6 25 34 -32 0 
-2 9 31 -7 18 34 -32 0 
-8 4 -9 2 31 34 -32 0 
-10 34 -32 0 
-11 -12 23 33 -13 34 -32 0 
-8 4 -14 22 24 34 -32 0 
-15 1 -16 21 -13 35 0 
-17 35 0 
-16 21 -13 34 -32 0 
-17 34 -32 0 
-18 7 35 0 
-19 -11 -18 7 35 0 
-13 -16 21 34 -32 0 
-20 -5 -21 16 35 0 
-16 21 -3 26 -13 35 0 
-15 1 -22 14 24 -2 9 31 35 0 
-23 12 33 34 -32 0 
-23 12 33 35 0 
-21 16 35 0 
-20 -11 -21 16 35 0 
-24 14 22 34 -32 0 
-13 -1 15 34 -32 0 
-25 6 34 -32 0 
-13 -26 3 34 -32 0 
-27 -13 34 -32 0 
-12 23 33 -16 21 34 -32 0 
-28 34 -32 0 
-29 -20 -21 16 34 -32 0 
-30 34 -32 0 
-31 2 9 35 0 
-32 -33 12 23 35 0 
-13 -8 4 35 0 
-3 26 -21 16 35 0 
